 Code  2231
 Dimension, Fixed Cost
   100        3000
 Facility, Client, Transportation Cost
     1       17           1
     1       18           4
     1       22           2
     1       23           4
     1       36           3
     1       48           1
     1       75           3
     1       78           0
     1       84           3
     1       90           4
     2        1           1
     2       22           1
     2       27           0
     2       34           2
     2       45           3
     2       59           0
     2       62           4
     2       82           0
     2       86           4
     2       99           2
     3        3           3
     3       30           4
     3       36           1
     3       39           3
     3       60           4
     3       69           2
     3       78           4
     3       90           3
     3       93           2
     3       99           1
     4       25           2
     4       27           1
     4       33           3
     4       37           2
     4       41           4
     4       47           0
     4       57           4
     4       70           1
     4       77           3
     4       96           4
     5       15           0
     5       20           4
     5       31           0
     5       37           4
     5       41           3
     5       53           4
     5       56           4
     5       61           0
     5       79           4
     5       93           3
     6        5           1
     6       26           3
     6       32           2
     6       43           2
     6       44           2
     6       45           3
     6       53           0
     6       58           1
     6       70           0
     6       93           1
     7        6           3
     7       26           4
     7       30           0
     7       52           0
     7       55           2
     7       62           0
     7       73           1
     7       84           4
     7       87           2
     7       94           0
     8        5           2
     8       13           0
     8       15           0
     8       25           2
     8       26           0
     8       30           3
     8       39           0
     8       40           4
     8       79           4
     8       92           1
     9        9           3
     9       18           3
     9       19           4
     9       38           0
     9       40           1
     9       81           1
     9       82           3
     9       84           2
     9       92           4
     9      100           0
    10       22           3
    10       24           3
    10       29           2
    10       44           0
    10       46           4
    10       49           2
    10       54           4
    10       62           2
    10       70           2
    10       71           4
    11       34           4
    11       38           2
    11       40           1
    11       41           4
    11       52           3
    11       55           0
    11       70           2
    11       75           3
    11       77           3
    11       94           4
    12       11           3
    12       18           3
    12       47           1
    12       49           3
    12       65           4
    12       69           0
    12       72           0
    12       77           2
    12       80           0
    12       81           3
    13       26           4
    13       34           4
    13       48           2
    13       52           2
    13       58           2
    13       63           0
    13       80           3
    13       84           2
    13       92           0
    13       97           3
    14        5           4
    14        9           1
    14       10           1
    14       23           0
    14       24           3
    14       35           4
    14       46           1
    14       57           4
    14       85           2
    14       97           1
    15       16           0
    15       21           4
    15       33           2
    15       34           2
    15       60           0
    15       65           2
    15       70           4
    15       73           1
    15       92           2
    15       96           1
    16        6           3
    16       11           3
    16       42           1
    16       68           2
    16       69           1
    16       73           2
    16       77           3
    16       82           3
    16       91           2
    16       92           1
    17       14           3
    17       23           4
    17       24           0
    17       29           0
    17       30           1
    17       47           0
    17       53           1
    17       69           0
    17       73           3
    17       86           1
    18        4           0
    18       28           2
    18       30           3
    18       34           1
    18       36           4
    18       46           2
    18       47           3
    18       55           1
    18       73           1
    18       74           4
    19        5           3
    19       36           1
    19       59           2
    19       63           2
    19       67           3
    19       70           2
    19       77           3
    19       86           4
    19       93           1
    19       99           3
    20       19           2
    20       21           2
    20       33           2
    20       46           3
    20       56           2
    20       62           4
    20       86           3
    20       90           0
    20       93           3
    20       95           3
    21        1           3
    21        3           3
    21       13           0
    21       14           1
    21       46           1
    21       48           0
    21       55           3
    21       56           2
    21       78           0
    21       97           3
    22       14           1
    22       25           1
    22       28           2
    22       32           1
    22       36           4
    22       48           0
    22       62           0
    22       79           3
    22       93           3
    22       97           3
    23        2           1
    23       27           3
    23       33           0
    23       34           0
    23       47           0
    23       66           3
    23       71           4
    23       72           0
    23       80           1
    23       97           0
    24        2           4
    24        4           3
    24       35           0
    24       54           3
    24       57           2
    24       61           2
    24       63           4
    24       79           3
    24       82           4
    24       98           4
    25       23           3
    25       24           0
    25       29           3
    25       31           1
    25       40           1
    25       43           2
    25       55           4
    25       84           1
    25       91           3
    25       93           2
    26        1           1
    26        7           3
    26       15           2
    26       26           4
    26       38           2
    26       47           4
    26       52           1
    26       62           2
    26       67           4
    26       95           3
    27        4           4
    27       15           2
    27       26           0
    27       38           0
    27       40           4
    27       50           0
    27       64           4
    27       67           4
    27       86           3
    27       95           3
    28        1           0
    28        7           2
    28       15           2
    28       24           2
    28       27           0
    28       37           0
    28       42           4
    28       66           3
    28       75           4
    28       82           3
    29        2           2
    29        5           4
    29       44           2
    29       54           2
    29       59           3
    29       62           1
    29       65           2
    29       76           0
    29       77           1
    29       97           1
    30        2           4
    30       26           3
    30       34           4
    30       57           0
    30       64           1
    30       67           2
    30       71           4
    30       77           2
    30       89           2
    30       95           1
    31        8           4
    31       25           0
    31       34           4
    31       50           0
    31       53           3
    31       64           3
    31       67           3
    31       76           4
    31       91           0
    31       97           2
    32       19           4
    32       21           2
    32       25           1
    32       29           0
    32       41           1
    32       58           0
    32       79           1
    32       85           0
    32       88           3
    32       94           2
    33        4           2
    33       20           3
    33       25           0
    33       33           4
    33       37           1
    33       43           0
    33       46           4
    33       79           1
    33       92           2
    33       93           3
    34        6           3
    34       50           3
    34       61           0
    34       69           4
    34       70           0
    34       79           2
    34       86           1
    34       87           3
    34       98           0
    34      100           3
    35       17           4
    35       38           0
    35       61           2
    35       78           2
    35       81           1
    35       87           1
    35       93           3
    35       95           2
    35       98           4
    35      100           4
    36        2           2
    36       24           3
    36       29           3
    36       33           1
    36       44           3
    36       61           1
    36       63           2
    36       79           2
    36       84           4
    36       94           2
    37        1           3
    37        9           1
    37       26           4
    37       27           3
    37       49           2
    37       53           4
    37       61           4
    37       76           0
    37       77           0
    37       89           3
    38       24           0
    38       31           2
    38       45           2
    38       51           3
    38       52           4
    38       66           0
    38       67           4
    38       73           2
    38       92           4
    38       99           4
    39       20           0
    39       27           4
    39       31           2
    39       51           4
    39       67           0
    39       74           4
    39       77           0
    39       93           4
    39       95           0
    39       97           3
    40        6           3
    40       24           0
    40       26           3
    40       34           2
    40       41           4
    40       52           3
    40       58           4
    40       73           1
    40       81           1
    40       88           0
    41       10           3
    41       16           2
    41       22           1
    41       37           1
    41       60           1
    41       68           1
    41       85           3
    41       92           0
    41       93           0
    41       95           1
    42        2           2
    42       13           2
    42       18           4
    42       20           3
    42       35           3
    42       57           2
    42       63           2
    42       75           0
    42       78           3
    42       97           1
    43       14           0
    43       21           4
    43       42           1
    43       43           3
    43       44           2
    43       45           4
    43       50           3
    43       65           3
    43       73           4
    43       79           1
    44       10           1
    44       11           0
    44       13           1
    44       21           3
    44       33           1
    44       36           0
    44       41           1
    44       58           2
    44       72           4
    44       74           3
    45        1           4
    45       11           4
    45       18           3
    45       21           3
    45       31           4
    45       36           1
    45       51           0
    45       72           0
    45       92           2
    45       99           0
    46       11           3
    46       27           2
    46       35           2
    46       38           0
    46       39           4
    46       45           4
    46       49           4
    46       69           0
    46       73           1
    46       77           4
    47       19           1
    47       22           2
    47       27           4
    47       39           2
    47       62           4
    47       63           1
    47       69           3
    47       70           4
    47       78           3
    47       99           1
    48        1           3
    48        6           0
    48        9           3
    48       16           3
    48       21           0
    48       33           1
    48       66           1
    48       71           4
    48       88           0
    48       99           4
    49        2           3
    49       26           4
    49       42           2
    49       43           2
    49       44           2
    49       48           2
    49       51           1
    49       54           1
    49       59           2
    49      100           1
    50       14           4
    50       19           4
    50       30           1
    50       42           4
    50       44           0
    50       49           0
    50       66           1
    50       70           2
    50       83           0
    50       84           1
    51        5           4
    51       13           2
    51       20           3
    51       24           3
    51       26           0
    51       35           1
    51       63           0
    51       67           1
    51       71           3
    51       92           0
    52        3           3
    52       10           3
    52       17           0
    52       24           3
    52       25           3
    52       42           0
    52       52           3
    52       62           2
    52       68           3
    52       78           4
    53        5           1
    53        7           3
    53       11           0
    53       46           0
    53       50           3
    53       52           4
    53       63           1
    53       67           4
    53       76           3
    53       77           1
    54        2           1
    54        6           0
    54       35           0
    54       40           4
    54       50           1
    54       51           1
    54       56           1
    54       58           0
    54       59           3
    54       82           0
    55       10           0
    55       15           0
    55       18           3
    55       20           2
    55       26           2
    55       30           0
    55       61           4
    55       86           0
    55       88           4
    55       90           0
    56       13           0
    56       27           3
    56       47           4
    56       52           1
    56       55           0
    56       65           4
    56       80           1
    56       85           4
    56       88           4
    56       92           2
    57        1           4
    57       10           1
    57       37           2
    57       49           2
    57       52           0
    57       62           2
    57       65           3
    57       72           4
    57       78           0
    57       91           3
    58        9           3
    58       41           2
    58       46           1
    58       49           1
    58       50           4
    58       56           2
    58       65           0
    58       68           0
    58       72           3
    58       96           0
    59        6           0
    59       10           1
    59       16           3
    59       18           0
    59       29           2
    59       35           1
    59       60           4
    59       63           4
    59       69           4
    59       98           3
    60        1           3
    60       24           1
    60       29           4
    60       34           3
    60       37           1
    60       46           0
    60       67           1
    60       70           1
    60       81           4
    60       96           0
    61       28           3
    61       29           2
    61       30           4
    61       34           0
    61       35           3
    61       51           1
    61       58           3
    61       66           0
    61       90           1
    61       98           4
    62       15           1
    62       22           4
    62       33           4
    62       38           0
    62       48           1
    62       49           0
    62       71           4
    62       87           0
    62       89           3
    62       91           2
    63       25           1
    63       30           4
    63       31           3
    63       38           2
    63       41           3
    63       51           1
    63       52           2
    63       66           3
    63       79           4
    63       86           0
    64        7           1
    64       12           4
    64       44           0
    64       47           0
    64       54           4
    64       56           1
    64       80           3
    64       86           4
    64       93           0
    64       95           4
    65        3           4
    65       14           1
    65       22           4
    65       34           1
    65       41           0
    65       46           4
    65       80           2
    65       86           3
    65       93           1
    65       96           0
    66        7           4
    66       22           2
    66       24           0
    66       34           2
    66       43           3
    66       45           0
    66       74           2
    66       83           1
    66       86           4
    66       91           2
    67        4           2
    67       18           3
    67       32           3
    67       46           2
    67       47           0
    67       56           0
    67       57           4
    67       69           1
    67       77           0
    67       85           1
    68       13           2
    68       19           1
    68       39           3
    68       43           2
    68       45           1
    68       79           3
    68       83           4
    68       90           2
    68       99           4
    68      100           3
    69       22           2
    69       32           3
    69       38           1
    69       51           4
    69       66           1
    69       76           0
    69       81           3
    69       83           1
    69       91           4
    69      100           2
    70       10           3
    70       21           3
    70       23           4
    70       45           0
    70       50           3
    70       56           2
    70       61           1
    70       77           1
    70       86           3
    70       93           3
    71       11           4
    71       34           3
    71       37           4
    71       42           4
    71       45           4
    71       63           0
    71       64           4
    71       74           1
    71       80           0
    71       82           2
    72        8           4
    72       17           0
    72       39           4
    72       69           2
    72       75           1
    72       76           0
    72       78           4
    72       81           4
    72       94           1
    72       95           3
    73       18           2
    73       23           3
    73       26           0
    73       44           2
    73       50           1
    73       59           3
    73       60           3
    73       62           2
    73       69           0
    73       92           4
    74        4           2
    74        6           1
    74       35           4
    74       46           3
    74       47           2
    74       54           3
    74       87           4
    74       90           1
    74       96           2
    74       97           4
    75        2           2
    75       12           4
    75       15           2
    75       22           4
    75       31           0
    75       35           0
    75       45           2
    75       63           3
    75       82           3
    75       95           2
    76        4           4
    76       16           3
    76       23           4
    76       35           3
    76       38           3
    76       40           3
    76       42           0
    76       59           0
    76       60           3
    76       88           3
    77        2           0
    77       17           3
    77       20           1
    77       24           4
    77       36           3
    77       44           2
    77       46           1
    77       55           0
    77       56           4
    77       64           0
    78        7           3
    78       16           1
    78       19           4
    78       23           2
    78       30           4
    78       45           0
    78       55           0
    78       76           0
    78       78           1
    78       86           1
    79       10           1
    79       17           1
    79       26           0
    79       39           0
    79       42           3
    79       49           0
    79       55           3
    79       57           0
    79       62           0
    79       84           2
    80        6           2
    80       31           1
    80       58           4
    80       59           4
    80       67           0
    80       74           4
    80       76           1
    80       86           3
    80       97           1
    80      100           3
    81        4           0
    81       22           2
    81       45           3
    81       65           1
    81       76           0
    81       78           0
    81       80           0
    81       86           2
    81       87           4
    81      100           0
    82        7           3
    82        8           3
    82       30           4
    82       38           1
    82       43           3
    82       51           4
    82       63           0
    82       73           3
    82       84           0
    82       96           1
    83        6           1
    83       11           3
    83       27           0
    83       35           4
    83       37           1
    83       53           3
    83       61           0
    83       80           2
    83       88           4
    83      100           2
    84       11           4
    84       14           0
    84       20           3
    84       26           3
    84       51           2
    84       57           0
    84       63           3
    84       75           1
    84       87           3
    84       89           0
    85       16           0
    85       18           4
    85       21           1
    85       26           0
    85       28           0
    85       38           3
    85       39           3
    85       57           3
    85       86           4
    85      100           4
    86        9           4
    86       10           2
    86       11           4
    86       24           3
    86       66           3
    86       82           2
    86       84           2
    86       87           4
    86       96           1
    86       99           0
    87        5           2
    87        6           1
    87        8           1
    87        9           2
    87       17           2
    87       23           4
    87       29           0
    87       38           2
    87       46           1
    87       49           0
    88       13           1
    88       16           2
    88       24           1
    88       28           2
    88       32           1
    88       44           2
    88       45           2
    88       65           3
    88       83           2
    88       93           1
    89       12           4
    89       14           4
    89       23           4
    89       31           2
    89       35           3
    89       65           3
    89       67           4
    89       88           3
    89       97           4
    89       98           0
    90       19           1
    90       27           4
    90       28           3
    90       47           1
    90       48           1
    90       58           0
    90       68           1
    90       81           2
    90       83           4
    90       93           3
    91        3           3
    91       11           1
    91       16           1
    91       19           0
    91       35           0
    91       38           4
    91       51           2
    91       60           1
    91       67           3
    91       73           0
    92        3           4
    92       29           1
    92       36           2
    92       39           3
    92       42           4
    92       45           3
    92       53           2
    92       60           2
    92       63           3
    92       99           0
    93        2           0
    93        3           0
    93       25           4
    93       40           0
    93       43           2
    93       68           0
    93       81           2
    93       92           1
    93       93           3
    93      100           4
    94       23           0
    94       24           0
    94       31           1
    94       36           3
    94       47           3
    94       54           4
    94       55           1
    94       76           3
    94       95           0
    94      100           4
    95        9           3
    95       14           2
    95       15           2
    95       32           3
    95       69           2
    95       71           2
    95       85           2
    95       93           1
    95       94           0
    95      100           1
    96       11           2
    96       13           4
    96       27           4
    96       28           2
    96       42           4
    96       76           1
    96       77           3
    96       81           1
    96       84           1
    96       88           4
    97        3           3
    97       16           2
    97       39           3
    97       47           0
    97       53           3
    97       59           3
    97       67           1
    97       83           0
    97       85           3
    97       91           3
    98        7           3
    98       10           4
    98       12           1
    98       13           2
    98       44           0
    98       47           2
    98       55           4
    98       59           4
    98       79           0
    98       90           0
    99        2           4
    99        3           2
    99       14           1
    99       19           0
    99       58           2
    99       64           2
    99       80           3
    99       91           1
    99       95           0
    99       98           0
   100       19           4
   100       25           1
   100       30           1
   100       31           3
   100       48           2
   100       51           0
   100       54           0
   100       68           0
   100       72           1
   100       73           1
